
Log started (V22.1.0.0) Wed Jul 12 08:38:50 2023

New value for mixed integer solutions limit: 1
New value for time limit in seconds: 501
New value for default parallel thread count: 1

Problem 'C:\Users\Mathis\AppData\Local\Temp\tmpz8gygijz.pyomo.lp' read.
Read time = 0.17 sec. (10.46 ticks)

Problem name         : C:\Users\Mathis\AppData\Local\Temp\tmpz8gygijz.pyomo.lp
Objective sense      : Minimize
Variables            :   76785  [Nneg: 15128,  Binary: 61657]
Objective nonzeros   :       1
Linear constraints   :   77791  [Less: 75720,  Greater: 345,  Equal: 1726]
  Nonzeros           :  412386
  RHS nonzeros       :   63669

Variables            : Min LB: 0.000000         Max UB: 1.000000       
Objective nonzeros   : Min   : 1.240367e+07     Max   : 1.240367e+07   
Linear constraints   :
  Nonzeros           : Min   : 0.2192982        Max   : 10000.00       
  RHS nonzeros       : Min   : 1.000000         Max   : 10000.00       
Version identifier: 22.1.0.0 | 2022-03-09 | 1a383f8ce
CPXPARAM_Threads                                 1
CPXPARAM_MIP_Limits_Solutions                    1
CPXPARAM_TimeLimit                               501
Tried aggregator 2 times.
MIP Presolve eliminated 67255 rows and 40347 columns.
MIP Presolve modified 56314 coefficients.
Aggregator did 584 substitutions.
Reduced MIP has 9952 rows, 35854 columns, and 104090 nonzeros.
Reduced MIP has 35041 binaries, 0 generals, 0 SOSs, and 0 indicators.
Presolve time = 0.27 sec. (181.32 ticks)
Probing time = 0.05 sec. (11.07 ticks)
Tried aggregator 2 times.
Detecting symmetries...
Aggregator did 3 substitutions.
Reduced MIP has 9949 rows, 35851 columns, and 104084 nonzeros.
Reduced MIP has 35041 binaries, 0 generals, 0 SOSs, and 0 indicators.
Presolve time = 0.09 sec. (90.19 ticks)
Probing time = 0.02 sec. (11.00 ticks)
Clique table members: 3540.
MIP emphasis: balance optimality and feasibility.
MIP search method: dynamic search.
Parallel mode: none, using 1 thread.
Root relaxation solution time = 0.58 sec. (714.42 ticks)

        Nodes                                         Cuts/
   Node  Left     Objective  IInf  Best Integer    Best Bound    ItCnt     Gap

      0     0   1.24037e+07  1057                 1.24037e+07     5022         
      0     0   1.24037e+07   372                   Cuts: 103     5499         
      0     0   1.24037e+07   527                  Cuts: 1481     6921         
      0     0   1.24037e+07   407                   Cuts: 118     8747         
      0     0   1.24037e+07   577                  Cuts: 1659    11019         
      0     2   1.24037e+07   189                 1.24037e+07    11019         
Elapsed time = 15.78 sec. (18102.15 ticks, tree = 0.01 MB, solutions = 0)
      3     5   1.24037e+07   428                 1.24037e+07    12705         
     10    12   1.24037e+07   200                 1.24037e+07    13315         
     11    13   1.24037e+07   423                 1.24037e+07    14854         
     14    16   1.24037e+07   455                 1.24037e+07    17591         
     19    21   1.24037e+07   364                 1.24037e+07    17859         
     20    22   1.24037e+07   373                 1.24037e+07    18075         
     31    33   1.24037e+07   335                 1.24037e+07    18907         
     40    42   1.24037e+07   345                 1.24037e+07    19622         
     53    55   1.24037e+07   356                 1.24037e+07    20591         
     76    78   1.24037e+07   332                 1.24037e+07    22329         
Elapsed time = 18.20 sec. (22836.03 ticks, tree = 1.35 MB, solutions = 0)
    108   108   1.24037e+07   286                 1.24037e+07    27034         
    140   140   1.24037e+07   271                 1.24037e+07    28697         
    164   164   1.24037e+07   262                 1.24037e+07    30498         
    214   214   1.24037e+07   227                 1.24037e+07    33131         
    243   243   1.24037e+07   254                 1.24037e+07    35479         
    280   272   1.24037e+07   201                 1.24037e+07    39454         
    318   296   1.24037e+07   185                 1.24037e+07    44144         
    344   314    infeasible                       1.24037e+07    48396         
    389   343   1.24037e+07   154                 1.24037e+07    52290         
    431   363   1.24037e+07   113                 1.24037e+07    56723         
Elapsed time = 24.16 sec. (32660.69 ticks, tree = 6.57 MB, solutions = 0)
    489   379   1.24037e+07   170                 1.24037e+07    60393         
    542   392    infeasible                       1.24037e+07    64207         
    560   400   1.24037e+07   360                 1.24037e+07    69810         
    582   404   1.24037e+07   447                 1.24037e+07    74529         
    591   411   1.24037e+07   335                 1.24037e+07    78166         
    614   420   1.24037e+07   421                 1.24037e+07    83756         
    640   434   1.24037e+07   286                 1.24037e+07    88130         
    665   441   1.24037e+07   296                 1.24037e+07    93573         
    691   449   1.24037e+07   256                 1.24037e+07    99581         
    719   457   1.24037e+07   281                 1.24037e+07   104240         
Elapsed time = 30.94 sec. (42699.07 ticks, tree = 8.01 MB, solutions = 0)
    763   475   1.24037e+07   137                 1.24037e+07   108275         
    814   496   1.24037e+07   186                 1.24037e+07   112066         
    840   506   1.24037e+07   347                 1.24037e+07   115675         
    880   522   1.24037e+07   191                 1.24037e+07   120256         
    919   537   1.24037e+07   174                 1.24037e+07   125053         
    953   545    infeasible                       1.24037e+07   130296         
    972   560   1.24037e+07   211                 1.24037e+07   135486         
   1019   573   1.24037e+07   154                 1.24037e+07   140138         
   1051   577   1.24037e+07   227                 1.24037e+07   144838         
   1061   577   1.24037e+07   266                 1.24037e+07   149716         
Elapsed time = 37.05 sec. (52523.73 ticks, tree = 9.81 MB, solutions = 0)
   1068   580   1.24037e+07   239                 1.24037e+07   153624         
   1097   581   1.24037e+07   299                 1.24037e+07   158990         
   1114   582   1.24037e+07   477                 1.24037e+07   164897         
   1124   584   1.24037e+07   514                 1.24037e+07   167087         
   1144   588   1.24037e+07   472                 1.24037e+07   172364         
   1174   592    infeasible                       1.24037e+07   178372         
   1187   593    infeasible                       1.24037e+07   182711         
   1192   594    infeasible                       1.24037e+07   185959         
   1201   597    infeasible                       1.24037e+07   189265         
   1229   599   1.24037e+07   341                 1.24037e+07   194479         
Elapsed time = 43.94 sec. (62463.58 ticks, tree = 10.28 MB, solutions = 0)
   1246   600   1.24037e+07   559                 1.24037e+07   199432         
   1257   601   1.24037e+07   623                 1.24037e+07   203449         
   1270   602   1.24037e+07   583                 1.24037e+07   207766         
   1289   603    infeasible                       1.24037e+07   212118         
   1307   607    infeasible                       1.24037e+07   217012         
   1327   611    infeasible                       1.24037e+07   221541         
   1340   612    infeasible                       1.24037e+07   227425         
   1349   613   1.24037e+07   498                 1.24037e+07   231977         
   1364   612    infeasible                       1.24037e+07   237146         
   1371   613   1.24037e+07   495                 1.24037e+07   240776         
Elapsed time = 51.55 sec. (72594.49 ticks, tree = 10.49 MB, solutions = 0)
   1381   615   1.24037e+07   496                 1.24037e+07   245327         
   1389   617   1.24037e+07   438                 1.24037e+07   249630         
   1431   623   1.24037e+07   165                 1.24037e+07   253679         
   1465   637   1.24037e+07   308                 1.24037e+07   258186         
   1492   646   1.24037e+07   250                 1.24037e+07   263601         
   1506   654   1.24037e+07   311                 1.24037e+07   268661         
   1539   665   1.24037e+07   319                 1.24037e+07   273618         
   1564   674   1.24037e+07   226                 1.24037e+07   278725         
   1600   682   1.24037e+07   215                 1.24037e+07   283389         
   1649   685    infeasible                       1.24037e+07   288131         
Elapsed time = 58.13 sec. (82571.16 ticks, tree = 11.55 MB, solutions = 0)
   1667   689   1.24037e+07   379                 1.24037e+07   295113         
   1681   691   1.24037e+07   253                 1.24037e+07   299002         
   1690   696   1.24037e+07   378                 1.24037e+07   304624         
   1716   700    infeasible                       1.24037e+07   310392         
   1731   705   1.24037e+07   391                 1.24037e+07   315616         
   1759   711    infeasible                       1.24037e+07   321475         
   1773   715   1.24037e+07   407                 1.24037e+07   327090         
   1788   718   1.24037e+07   538                 1.24037e+07   332509         
   1799   719   1.24037e+07   515                 1.24037e+07   337792         
   1823   727   1.24037e+07   449                 1.24037e+07   344346         
Elapsed time = 65.83 sec. (92755.79 ticks, tree = 12.15 MB, solutions = 0)
   1832   726    infeasible                       1.24037e+07   350370         
   1848   730    infeasible                       1.24037e+07   354673         
   1872   734   1.24037e+07   304                 1.24037e+07   359323         
   1904   734   1.24037e+07   247                 1.24037e+07   364084         
   1955   737   1.24037e+07   362                 1.24037e+07   370065         
   1995   751   1.24037e+07   241                 1.24037e+07   374426         
   2033   763   1.24037e+07   168                 1.24037e+07   379536         
   2072   766    infeasible                       1.24037e+07   385529         
   2093   777   1.24037e+07   332                 1.24037e+07   391295         

Performing restart 1

Repeating presolve.
Tried aggregator 1 time.
Reduced MIP has 9949 rows, 35851 columns, and 104084 nonzeros.
Reduced MIP has 35041 binaries, 0 generals, 0 SOSs, and 0 indicators.
Presolve time = 0.05 sec. (53.68 ticks)
Tried aggregator 1 time.
Reduced MIP has 9949 rows, 35851 columns, and 104084 nonzeros.
Reduced MIP has 35041 binaries, 0 generals, 0 SOSs, and 0 indicators.
Presolve time = 0.08 sec. (68.94 ticks)
Represolve time = 0.45 sec. (356.24 ticks)
   2096     0   1.24037e+07   563                   Cuts: 278   397777         
   2096     0   1.24037e+07   679                  Cuts: 1506   399973         
   2096     0   1.24037e+07   457                   Cuts: 763   401915         
   2096     0   1.24037e+07   584                  Cuts: 1194   404191         
   2096     0   1.24037e+07   461                   Cuts: 667   406173         
   2096     0   1.24037e+07   558                  Cuts: 1136   408425         
   2096     0   1.24037e+07   428                    Cuts: 64   410071         
   2096     0   1.24037e+07   571                  Cuts: 1129   412242         
   2096     2   1.24037e+07   192                 1.24037e+07   412242         
Elapsed time = 92.89 sec. (130523.36 ticks, tree = 0.01 MB, solutions = 0)
   2098     4   1.24037e+07   194                 1.24037e+07   413924         
   2101     7   1.24037e+07   532                 1.24037e+07   417570         
   2106    12   1.24037e+07   200                 1.24037e+07   418008         
   2110    16   1.24037e+07   444                 1.24037e+07   419444         
   2114    20   1.24037e+07   482                 1.24037e+07   421762         
   2118    24   1.24037e+07   346                 1.24037e+07   421941         
   2119    25   1.24037e+07   486                 1.24037e+07   423265         
   2124    30   1.24037e+07   353                 1.24037e+07   423716         
   2127    33   1.24037e+07   362                 1.24037e+07   424083         
   2150    56   1.24037e+07   331                 1.24037e+07   427004         
Elapsed time = 101.74 sec. (145795.29 ticks, tree = 4.25 MB, solutions = 0)
   2172    78   1.24037e+07   333                 1.24037e+07   430051         
   2189    95   1.24037e+07   351                 1.24037e+07   432307         
   2220   126   1.24037e+07   314                 1.24037e+07   436371         
   2247   153   1.24037e+07   322                 1.24037e+07   442579         
   2270   176   1.24037e+07   352                 1.24037e+07   450343         
   2303   209   1.24037e+07   356                 1.24037e+07   456162         
   2335   238   1.24037e+07   325                 1.24037e+07   463242         
   2367   268   1.24037e+07   348                 1.24037e+07   473002         
   2403   290   1.24037e+07   440                 1.24037e+07   481295         
   2415   294    infeasible                       1.24037e+07   492945         
Elapsed time = 126.99 sec. (184985.28 ticks, tree = 25.03 MB, solutions = 0)
   2442   305    infeasible                       1.24037e+07   506644         
   2476   319   1.24037e+07   500                 1.24037e+07   523525         
   2495   330   1.24037e+07   212                 1.24037e+07   531435         
   2503   338   1.24037e+07   263                 1.24037e+07   532702         
   2536   371   1.24037e+07   294                 1.24037e+07   537894         
   2571   406   1.24037e+07   311                 1.24037e+07   544437         
   2616   451   1.24037e+07   264                 1.24037e+07   551370         
   2655   490   1.24037e+07   312                 1.24037e+07   558105         
   2693   528   1.24037e+07   302                 1.24037e+07   565643         
   2742   577   1.24037e+07   321                 1.24037e+07   572670         
Elapsed time = 152.89 sec. (226194.57 ticks, tree = 28.93 MB, solutions = 0)
   2794   627   1.24037e+07   292                 1.24037e+07   581708         
   2838   670   1.24037e+07   292                 1.24037e+07   590695         
   2896   720   1.24037e+07   288                 1.24037e+07   601900         
   2943   767   1.24037e+07   315                 1.24037e+07   611642         
   3003   821    infeasible                       1.24037e+07   627699         
   3067   863    infeasible                       1.24037e+07   650613         
   3120   888   1.24037e+07   258                 1.24037e+07   674884         
